# Solution for model GasLib-40
# Objective value = 3.0999436142605244e+01
loadshed[innode_1] 0
loadshed[innode_2] 0
loadshed[innode_3] 0
loadshed[innode_4] 0
loadshed[innode_5] 0
loadshed[innode_6] 0
loadshed[innode_7] 0
loadshed[innode_8] 0
loadshed[source_1] -1.5513743862886709e-01
loadshed[source_2] 9.7880692222589438e-03
loadshed[source_3] 3.4143629251377350e-01
loadshed[sink_1] 0
loadshed[sink_2] 0
loadshed[sink_3] 0
loadshed[sink_4] 0
loadshed[sink_5] 0
loadshed[sink_6] 0
loadshed[sink_7] 0
loadshed[sink_8] 0
loadshed[sink_9] 0
loadshed[sink_10] 0
loadshed[sink_11] 0
loadshed[sink_12] 1
loadshed[sink_13] 0
loadshed[sink_14] 0
loadshed[sink_15] 0
loadshed[sink_16] 0
loadshed[sink_17] 0
loadshed[sink_18] 0
loadshed[sink_19] 0
loadshed[sink_20] 7.0801386042901138e-01
loadshed[sink_21] 1.8749306294048115e-01
loadshed[sink_22] 0
loadshed[sink_23] 0
loadshed[sink_24] 0
loadshed[sink_25] 0
loadshed[sink_26] 0
loadshed[sink_27] 0
loadshed[sink_28] 0
loadshed[sink_29] 0
flow[source_1,sink_3] 1.8261599854434832e+02
flow[innode_1,sink_16] 1.6354166666666970e+01
flow[innode_6,sink_13] 1.0366647215805699e+01
flow[sink_13,sink_14] -5.9875194508609688e+00
flow[sink_14,sink_10] -2.2341686117527615e+01
flow[sink_25,sink_26] 2.1431306385739447e+02
flow[sink_26,sink_9] 1.9795889719072778e+02
flow[sink_9,sink_18] 1.8160473052406113e+02
flow[sink_26,sink_4] 0
flow[sink_4,sink_20] 2.3060595604351555e+00
flow[sink_18,sink_6] 1.6525056385739447e+02
flow[sink_25,innode_8] -1.4990766521101193e+02
flow[sink_6,sink_7] 1.1618806385739435e+02
flow[sink_6,sink_22] 3.2708333333333641e+01
flow[sink_7,sink_24] 2.9642040533160877e+01
flow[sink_22,sink_1] 1.6354166666666970e+01
flow[sink_24,sink_21] 1.3287873866494216e+01
flow[sink_21,sink_12] 0
flow[sink_7,sink_5] 7.0191856657567214e+01
flow[sink_5,sink_17] 5.3837689990900543e+01
flow[sink_17,sink_4] 1.8660226227101816e+01
flow[sink_17,sink_8] 1.8823297097132070e+01
flow[sink_3,sink_23] 16.3541666666697
flow[sink_8,sink_20] 2.4691304304653841e+00
flow[sink_25,sink_20] 0
flow[sink_25,sink_15] -9.1126212528854808e+01
flow[sink_15,sink_29] -6.0245285488180912e+01
flow[sink_29,sink_28] 1.6354166666667879e+01
flow[sink_29,sink_2] 6.3589260374007267e+01
flow[sink_2,sink_15] 4.7235093707340639e+01
flow[sink_29,innode_7] -1.5654287919552274e+02
flow[innode_4,sink_19] 3.9732318949481396e+01
flow[sink_19,innode_3] 0
flow[innode_4,innode_5] 6.4380200501379250e+01
flow[sink_27,innode_5] -6.4380200501379250e+01
flow[sink_27,sink_19] 4.8026033834712621e+01
flow[sink_10,sink_11] 3.2708333333333641e+01
flow[sink_10,innode_2] -7.1404186117527956e+01
flow[sink_10,innode_3] 0
flow[innode_6,sink_25] -1.0366647215805699e+01
flow[sink_11,innode_1] 1.6354166666666970e+01
flow[sink_19,innode_2] 7.1404186117527956e+01
flow[source_3,innode_4] 1.0411251945086073e+02
flow[source_2,innode_7] 1.5654287919552274e+02
flow[sink_3,innode_8] 1.4990766521101193e+02
pressure[innode_1] 7.5477885067968629e+01
pressure[innode_2] 7.9403592520830813e+01
pressure[innode_3] 7.9403592520830813e+01
pressure[innode_4] 81.01325
pressure[innode_5] 8.0968965903316658e+01
pressure[innode_6] 7.4619290410794136e+01
pressure[innode_7] 81.01325
pressure[innode_8] 8.0402834478706268e+01
pressure[source_1] 81.01325
pressure[source_2] 81.01325
pressure[source_3] 81.01325
pressure[sink_1] 3.4592236161172274e+01
pressure[sink_2] 7.5215553507437747e+01
pressure[sink_3] 8.0402834478706268e+01
pressure[sink_4] 1.1824332519452685e+00
pressure[sink_5] 5.9060843224726840e+00
pressure[sink_6] 3.6693313771559644e+01
pressure[sink_7] 3.5098328605225042e+01
pressure[sink_8] 1.1853136669529567e+00
pressure[sink_9] 4.7676996267686135e+01
pressure[sink_10] 7.5629586375572174e+01
pressure[sink_11] 7.5477885067968629e+01
pressure[sink_12] 1.01325
pressure[sink_13] 7.4562140817121090e+01
pressure[sink_14] 74.5728559932023
pressure[sink_15] 7.5061341336930255e+01
pressure[sink_16] 7.4456235233150949e+01
pressure[sink_17] 1.8955655681510986e+00
pressure[sink_18] 4.1105995842139748e+01
pressure[sink_19] 7.9403592520830813e+01
pressure[sink_20] 1.01325
pressure[sink_21] 1.01325
pressure[sink_22] 3.5656005303527280e+01
pressure[sink_23] 8.0238116467046481e+01
pressure[sink_24] 1.1604008571641997e+00
pressure[sink_25] 7.4619290410794136e+01
pressure[sink_26] 5.9525347182400630e+01
pressure[sink_27] 8.0434729200974488e+01
pressure[sink_28] 7.6531058963927251e+01
pressure[sink_29] 7.6826341237544440e+01
interdiction[source_1,sink_3] 0
interdiction[innode_1,sink_16] 0
interdiction[innode_6,sink_13] 0
interdiction[sink_13,sink_14] 0
interdiction[sink_14,sink_10] 0
interdiction[sink_25,sink_26] 0
interdiction[sink_26,sink_9] 0
interdiction[sink_9,sink_18] 0
interdiction[sink_26,sink_4] 1
interdiction[sink_4,sink_20] 0
interdiction[sink_18,sink_6] 0
interdiction[sink_25,innode_8] 0
interdiction[sink_6,sink_7] 0
interdiction[sink_6,sink_22] 0
interdiction[sink_7,sink_24] 0
interdiction[sink_22,sink_1] 0
interdiction[sink_24,sink_21] 0
interdiction[sink_21,sink_12] 0
interdiction[sink_7,sink_5] 0
interdiction[sink_5,sink_17] 0
interdiction[sink_17,sink_4] 0
interdiction[sink_17,sink_8] 0
interdiction[sink_3,sink_23] 0
interdiction[sink_8,sink_20] 0
interdiction[sink_25,sink_20] 1
interdiction[sink_25,sink_15] 0
interdiction[sink_15,sink_29] 0
interdiction[sink_29,sink_28] 0
interdiction[sink_29,sink_2] 0
interdiction[sink_2,sink_15] 0
interdiction[sink_29,innode_7] 0
interdiction[innode_4,sink_19] 0
interdiction[sink_19,innode_3] 0
interdiction[innode_4,innode_5] 0
interdiction[sink_27,innode_5] 0
interdiction[sink_27,sink_19] 0
interdiction[sink_10,sink_11] 0
interdiction[sink_10,innode_2] 0
interdiction[sink_10,innode_3] 1
interdiction[innode_6,sink_25] 0
interdiction[sink_11,innode_1] 0
interdiction[sink_19,innode_2] 0
interdiction[source_3,innode_4] 0
interdiction[source_2,innode_7] 0
interdiction[sink_3,innode_8] 0
WCcheckFlow[source_1,sink_3] 39
WCcheckFlow[innode_1,sink_16] 1
WCcheckFlow[innode_6,sink_13] 13
WCcheckFlow[sink_13,sink_14] 12
WCcheckFlow[sink_14,sink_10] 11
WCcheckFlow[sink_25,sink_26] 15
WCcheckFlow[sink_26,sink_9] 14
WCcheckFlow[sink_9,sink_18] 13
WCcheckFlow[sink_26,sink_4] 0
WCcheckFlow[sink_4,sink_20] 1
WCcheckFlow[sink_18,sink_6] 12
WCcheckFlow[sink_25,innode_8] -36
WCcheckFlow[sink_6,sink_7] 9
WCcheckFlow[sink_6,sink_22] 2
WCcheckFlow[sink_7,sink_24] 3
WCcheckFlow[sink_22,sink_1] 1
WCcheckFlow[sink_24,sink_21] 2
WCcheckFlow[sink_21,sink_12] 1
WCcheckFlow[sink_7,sink_5] 5
WCcheckFlow[sink_5,sink_17] 4
WCcheckFlow[sink_17,sink_4] 2
WCcheckFlow[sink_17,sink_8] 1
WCcheckFlow[sink_3,sink_23] 1
WCcheckFlow[sink_8,sink_20] 0
WCcheckFlow[sink_25,sink_20] 0
WCcheckFlow[sink_25,sink_15] 6
WCcheckFlow[sink_15,sink_29] 5
WCcheckFlow[sink_29,sink_28] 1
WCcheckFlow[sink_29,sink_2] 1
WCcheckFlow[sink_2,sink_15] 0
WCcheckFlow[sink_29,innode_7] 2
WCcheckFlow[innode_4,sink_19] -4
WCcheckFlow[sink_19,innode_3] 1
WCcheckFlow[innode_4,innode_5] 2
WCcheckFlow[sink_27,innode_5] -1
WCcheckFlow[sink_27,sink_19] 0
WCcheckFlow[sink_10,sink_11] 3
WCcheckFlow[sink_10,innode_2] 7
WCcheckFlow[sink_10,innode_3] 0
WCcheckFlow[innode_6,sink_25] -14
WCcheckFlow[sink_11,innode_1] 2
WCcheckFlow[sink_19,innode_2] -6
WCcheckFlow[source_3,innode_4] -1
WCcheckFlow[source_2,innode_7] -1
WCcheckFlow[sink_3,innode_8] 37
